logs/miss/feas/miss-06-30-1.sol
# Objective value = 204
x0,1_6 0
x0,1_11 1
x0,1_20 0
x0,1_23 0
x0,1_36 0
x0,1_59 0
x0,1_60 0
x0,1_65 0
x0,1_76 0
x0,2_6 0
x0,2_11 0
x0,2_20 0
x0,2_23 0
x0,2_36 0
x0,2_59 0
x0,2_60 0
x0,2_65 0
x0,2_76 0
x0,3_6 0
x0,3_11 0
x0,3_20 0
x0,3_23 0
x0,3_36 0
x0,3_59 0
x0,3_60 0
x0,3_65 0
x0,3_76 0
x0,4_6 0
x0,4_11 0
x0,4_20 0
x0,4_23 0
x0,4_36 0
x0,4_59 0
x0,4_60 1
x0,4_65 0
x0,4_76 0
x0,5_6 0
x0,5_11 0
x0,5_20 0
x0,5_23 0
x0,5_36 0
x0,5_59 0
x0,5_60 0
x0,5_65 0
x0,5_76 1
x1,2_6 1
x1,2_11 0
x1,2_20 0
x1,2_23 0
x1,2_36 0
x1,2_59 0
x1,2_60 0
x1,2_65 0
x1,2_76 0
x1,3_6 0
x1,3_11 0
x1,3_20 0
x1,3_23 0
x1,3_36 0
x1,3_59 0
x1,3_60 0
x1,3_65 0
x1,3_76 0
x1,4_6 0
x1,4_11 0
x1,4_20 0
x1,4_23 0
x1,4_36 0
x1,4_59 0
x1,4_60 0
x1,4_65 0
x1,4_76 0
x1,5_6 0
x1,5_11 0
x1,5_20 0
x1,5_23 0
x1,5_36 0
x1,5_59 0
x1,5_60 0
x1,5_65 1
x1,5_76 0
x2,3_6 0
x2,3_11 0
x2,3_20 0
x2,3_23 1
x2,3_36 0
x2,3_59 0
x2,3_60 0
x2,3_65 0
x2,3_76 0
x2,4_6 0
x2,4_11 0
x2,4_20 0
x2,4_23 0
x2,4_36 0
x2,4_59 0
x2,4_60 0
x2,4_65 0
x2,4_76 0
x2,5_6 0
x2,5_11 0
x2,5_20 0
x2,5_23 0
x2,5_36 0
x2,5_59 1
x2,5_60 0
x2,5_65 0
x2,5_76 0
x3,4_6 0
x3,4_11 0
x3,4_20 1
x3,4_23 0
x3,4_36 0
x3,4_59 0
x3,4_60 0
x3,4_65 0
x3,4_76 0
x3,5_6 0
x3,5_11 0
x3,5_20 0
x3,5_23 0
x3,5_36 1
x3,5_59 0
x3,5_60 0
x3,5_65 0
x3,5_76 0
x4,5_6 0
x4,5_11 0
x4,5_20 0
x4,5_23 0
x4,5_36 0
x4,5_59 0
x4,5_60 0
x4,5_65 0
x4,5_76 0
p0 0
p1 11
p2 17
p3 40
p4 60
p5 76
